<instance format="XCSP3" type="CSP">
  <variables>
    <array id="x" size="[8]"> 1..8 </array>
  </variables>   
  <constraints>
    <allDifferent id="rows">
      x[0] x[1] x[2] x[3] x[4] x[5] x[6] x[7] 
    </allDifferent>
    <allDifferent id="diag1">
      add(x[0],0) add(x[1],1) add(x[2],2) add(x[3],3) 
      add(x[4],4) add(x[5],5) add(x[6],6) add(x[7],7)
    </allDifferent>
    <allDifferent id="diag2">
      sub(x[0],0) sub(x[1],1) sub(x[2],2) sub(x[3],3) 
      sub(x[4],4) sub(x[5],5) sub(x[6],6) sub(x[7],7)
    </allDifferent>
  </constraints>
</instance>
